(set-logic QF_SLIA)
(declare-fun var0 () String)
(declare-fun var1 () String)
(declare-fun var2 () Bool)
(declare-fun var3 () Bool)
(declare-fun var4 () String)
(declare-fun var5 () String)
(declare-fun var6 () String)
(declare-fun var7 () Bool)
(declare-fun var8 () Bool)
(declare-fun var9 () String)
(declare-fun var10 () String)
(declare-fun var11 () String)
(declare-fun var12 () Int)
(declare-fun var13 () Int)
(declare-fun var14 () String)
(declare-fun var15 () Int)
(declare-fun var16 () Int)
(declare-fun var17 () String)
(declare-fun var18 () String)
(declare-fun var19 () Int)
(declare-fun var20 () String)
(assert (> (str.to.int var0) (str.to.int var1)))
(assert (= var2 var3))
(assert (>= (str.len (str.replace var4 var5 var6)) (str.len var0)))
(assert (and (and var7 var8) (str.contains var9 var6)))
(assert (not (str.prefixof (str.++ var1 var5) (str.++ (str.++ var10 var4) (str.++ var6 var11)))))
(assert (str.prefixof (str.replace var6 var10 var4) (str.at (str.replace (str.substr "m|>mB;khJpt#k${OhA={" var12 var13) (str.substr var14 var15 var16) (str.substr var17 var16 var16)) (str.indexof (str.replace "TD`~y""7*z`+#m*mi2~H4u1R+gtm5z'iHxoH#!?q&xUP7,bKcy@&.waBt/%9Cq*lV5_Xg)8jS+['1R^,@s}o!,wzZlHg8E6|OpF3k=.Wu=z_RrL^N8EcGr?s&BkRM3<IWK8wP23JE~fAJ;>G7sF6h@E(OxDj$2j#*l8i27BGTBq<2MI$53iGo,]xu6%1Ozs2jC0LT4BhgRyb`u4Z[~'pH8jKJt?J*]UMrn{s9E'cnr9RKu$-$!4{""P]~ypMm^J8UwA=E-TsTu3X2%cc0P0goq$<!(#OJcF&3h{#ZGdtH5[&X;N" var18 var10) (str.at var17 var19) (str.indexof var17 var20 var12)))))
(assert (or var2 var3))
(assert (not (> var19 var19)))
(assert (str.in.re (str.substr (str.replace var4 "!jBDckD@vG[~DE1h^-gOs{o54r-,\\Fr;+Jhbx}uTNR<.7|l0~S;04(A;8-}'7tU/$9j" var10) (str.to.int var9) (str.indexof var11 var20 46)) (re.++ (re.++ re.allchar re.allchar) (str.to.re (str.replace (str.substr var17 var13 var13) (str.at var0 var13) (str.substr var1 var16 var12))))))
(assert (and (and (str.in.re var0 re.allchar) (str.contains "a!YVe,iiw=2mN""rvWa4X;>svAA7uQv[nAyJ7IC=V1bLgWcfD!~;""&PbgM@02>ha~*f?%d]_,g+x}Z.?a8<-EO<P0--4,E)+ha4$r&&F_L<ve,1HBD.?/lINcWip{@_6<hv" var1)) (or var7 var3)))
(assert (str.contains (str.at var20 var13) (str.replace var9 var20 var18)))
(assert (str.suffixof (str.substr var4 var13 var12) (str.substr var18 var15 var15)))
(assert (<= (str.to.int (str.++ var14 var18)) (str.indexof "#Kv*y2\\35S}l<Yc<a?N.K3(Q'lj|_<nO&mlJ[@VLSy<H0Qd|^W[h8`iiW6!]\\zsQ-^a" var11 var19)))
(check-sat)